\ LP format - for model browsing. Use MPS format to capture full model detail.
Minimize
  0.124 x(1,6) + 0.194 x(2,3) + 0.194 x(3,2) + 0.002 x(3,8) + 0.122 x(3,10)
   + 0.004 x(4,12) + 0.124 x(5,7) + 0.124 x(6,1) + 0.164 x(6,7)
   + 0.124 x(6,8) + 0.124 x(7,5) + 0.164 x(7,6) + 0.042 x(7,14)
   + 0.002 x(8,3) + 0.124 x(8,6) + 0.164 x(8,9) + 0.164 x(9,8)
   + 0.082 x(9,14) + 0.084 x(9,16) + 0.122 x(10,3) + 0.164 x(10,11)
   + 0.124 x(10,12) + 0.164 x(11,10) + 0.124 x(11,13) + 0.04 x(11,16)
   + 0.004 x(12,4) + 0.124 x(12,10) + 0.164 x(12,13) + 0.124 x(13,11)
   + 0.164 x(13,12) + 0.002 x(13,18) + 0.042 x(14,7) + 0.082 x(14,9)
   + 0.142 x(14,15) + 0.142 x(15,14) + 0.084 x(16,9) + 0.04 x(16,11)
   + 0.142 x(16,17) + 0.142 x(17,16) + 0.002 x(18,13) + 0.142 x(18,19)
   + 0.142 x(19,18) + 0.5582213639177719 x(20,21) + 0.525 x(20,22)
   + 0.65 x(20,23) + 0.4431578947368421 x(20,24) + 0.38 x(20,25)
   + 0.5028007782071712 x(20,26) + 0.524 x(20,27)
   + 0.5486606874731851 x(20,28) + 0.586 x(20,29)
   + 0.6032732151563506 x(20,30) + 0.648 x(20,31)
   + 0.6612049004134494 x(20,32) + 0.5166747616239262 x(20,33)
   + 0.5740632069105933 x(20,34) + 0.5851485889765299 x(20,35)
   + 0.6257542912105991 x(20,36) + 0.6621545345783666 x(20,37)
   + 0.6922498930709813 x(20,38) + 0.5582213639177719 x(21,20)
   + 0.4905263157894737 x(21,22) + 0.5582213639177719 x(21,23)
   + 0.6183254451501244 x(21,24) + 0.5156633044660233 x(21,25)
   + 0.5897630100941699 x(21,26) + 0.4905425931649122 x(21,27)
   + 0.5790027932742951 x(21,28) + 0.5145862120850497 x(21,29)
   + 0.5891084345025361 x(21,30) + 0.5566460979405488 x(21,31)
   + 0.6171865557533431 x(21,32) + 0.5838613608129778 x(21,33)
   + 0.6535034516530298 x(21,34) + 0.5836355085488643 x(21,35)
   + 0.6533396929026323 x(21,36) + 0.6177544488638522 x(21,37)
   + 0.6790627169652013 x(21,38) + 0.525 x(22,20)
   + 0.4905263157894737 x(22,21) + 0.525 x(22,23)
   + 0.5494958193395387 x(22,24) + 0.3831578947368421 x(22,25)
   + 0.5034069630150697 x(22,26) + 0.04 x(22,27)
   + 0.4431771494766851 x(22,28) + 0.3768421052631579 x(22,29)
   + 0.5022007827758672 x(22,30) + 0.523 x(22,31)
   + 0.5478276022940236 x(22,32) + 0.475148449842889 x(22,33)
   + 0.5586600138661282 x(22,34) + 0.4737224855078675 x(22,35)
   + 0.5583982323133689 x(22,36) + 0.5486606874731851 x(22,37)
   + 0.5969390768740425 x(22,38) + 0.65 x(23,20)
   + 0.5582213639177719 x(23,21) + 0.525 x(23,22)
   + 0.6631045419600354 x(23,24) + 0.588 x(23,25)
   + 0.6051048512346795 x(23,26) + 0.526 x(23,27)
   + 0.5503329637837291 x(23,28) + 0.3863157894736842 x(23,29)
   + 0.5040192289915667 x(23,30) + 0.08 x(23,31)
   + 0.4432349051083353 x(23,32) + 0.5860456933121538 x(23,33)
   + 0.6264906179072325 x(23,34) + 0.5173882447266335 x(23,35)
   + 0.5745422584934663 x(23,36) + 0.4431771494766851 x(23,37)
   + 0.5530032679389562 x(23,38) + 0.4431578947368421 x(24,20)
   + 0.6183254451501244 x(24,21) + 0.5494958193395387 x(24,22)
   + 0.6631045419600354 x(24,23) + 0.5028007782071712 x(24,25)
   + 0.38 x(24,26) + 0.5486606874731851 x(24,27) + 0.524 x(24,28)
   + 0.6032732151563506 x(24,29) + 0.586 x(24,30)
   + 0.6612049004134494 x(24,31) + 0.648 x(24,32)
   + 0.4463157894736842 x(24,33) + 0.5092245393673052 x(24,34)
   + 0.566 x(24,35) + 0.580546392929906 x(24,36) + 0.649 x(24,37)
   + 0.6589246994784391 x(24,38) + 0.38 x(25,20)
   + 0.5156633044660233 x(25,21) + 0.3831578947368421 x(25,22)
   + 0.588 x(25,23) + 0.5028007782071712 x(25,24)
   + 0.4431578947368421 x(25,26) + 0.38 x(25,27)
   + 0.5028007782071712 x(25,28) + 0.524 x(25,29)
   + 0.5486606874731851 x(25,30) + 0.586 x(25,31)
   + 0.6032732151563506 x(25,32) + 0.4515147042586462 x(25,33)
   + 0.554434452114805 x(25,34) + 0.5324386650491464 x(25,35)
   + 0.585 x(25,36) + 0.6041886382735338 x(25,37)
   + 0.6416153968603822 x(25,38) + 0.5028007782071712 x(26,20)
   + 0.5897630100941699 x(26,21) + 0.5034069630150697 x(26,22)
   + 0.6051048512346795 x(26,23) + 0.38 x(26,24)
   + 0.4431578947368421 x(26,25) + 0.5028007782071712 x(26,27)
   + 0.38 x(26,28) + 0.5486606874731851 x(26,29) + 0.524 x(26,30)
   + 0.6032732151563506 x(26,31) + 0.586 x(26,32)
   + 0.2505263157894737 x(26,33) + 0.4180227245525824 x(26,34)
   + 0.504 x(26,35) + 0.5259245806028354 x(26,36) + 0.587 x(26,37)
   + 0.6000249984376953 x(26,38) + 0.524 x(27,20)
   + 0.4905425931649122 x(27,21) + 0.04 x(27,22) + 0.526 x(27,23)
   + 0.5486606874731851 x(27,24) + 0.38 x(27,25)
   + 0.5028007782071712 x(27,26) + 0.4431578947368421 x(27,28)
   + 0.38 x(27,29) + 0.5028007782071712 x(27,30) + 0.524 x(27,31)
   + 0.5486606874731851 x(27,32) + 0.4737224855078675 x(27,33)
   + 0.5583982323133689 x(27,34) + 0.475148449842889 x(27,35)
   + 0.5586600138661282 x(27,36) + 0.5494958193395387 x(27,37)
   + 0.5975702406740449 x(27,38) + 0.5486606874731851 x(28,20)
   + 0.5790027932742951 x(28,21) + 0.4431771494766851 x(28,22)
   + 0.5503329637837291 x(28,23) + 0.524 x(28,24)
   + 0.5028007782071712 x(28,25) + 0.38 x(28,26)
   + 0.4431578947368421 x(28,27) + 0.5028007782071712 x(28,29)
   + 0.38 x(28,30) + 0.5486606874731851 x(28,31) + 0.524 x(28,32)
   + 0.3136842105263158 x(28,33) + 0.4431193809613007 x(28,34)
   + 0.3168421052631579 x(28,35) + 0.4447129175617728 x(28,36)
   + 0.525 x(28,37) + 0.5437567389724739 x(28,38) + 0.586 x(29,20)
   + 0.5145862120850497 x(29,21) + 0.3768421052631579 x(29,22)
   + 0.3863157894736842 x(29,23) + 0.6032732151563506 x(29,24)
   + 0.524 x(29,25) + 0.5486606874731851 x(29,26) + 0.38 x(29,27)
   + 0.5028007782071712 x(29,28) + 0.4431578947368421 x(29,30)
   + 0.38 x(29,31) + 0.5028007782071712 x(29,32)
   + 0.5316548517905816 x(29,33) + 0.5844396920405149 x(29,34)
   + 0.4507488148969582 x(29,35) + 0.5543016526159069 x(29,36)
   + 0.5034069630150697 x(29,37) + 0.5654629867976522 x(29,38)
   + 0.6032732151563506 x(30,20) + 0.5891084345025361 x(30,21)
   + 0.5022007827758672 x(30,22) + 0.5040192289915667 x(30,23)
   + 0.586 x(30,24) + 0.5486606874731851 x(30,25) + 0.524 x(30,26)
   + 0.5028007782071712 x(30,27) + 0.38 x(30,28)
   + 0.4431578947368421 x(30,29) + 0.5028007782071712 x(30,31)
   + 0.38 x(30,32) + 0.503 x(30,33) + 0.525099960031968 x(30,34)
   + 0.2473684210526316 x(30,35) + 0.4171467402851793 x(30,36)
   + 0.3831578947368421 x(30,37) + 0.4839611151600241 x(30,38)
   + 0.648 x(31,20) + 0.5566460979405488 x(31,21) + 0.523 x(31,22)
   + 0.08 x(31,23) + 0.6612049004134494 x(31,24) + 0.586 x(31,25)
   + 0.6032732151563506 x(31,26) + 0.524 x(31,27)
   + 0.5486606874731851 x(31,28) + 0.38 x(31,29)
   + 0.5028007782071712 x(31,30) + 0.4431578947368421 x(31,32)
   + 0.5842525440801294 x(31,33) + 0.6250199991111901 x(31,34)
   + 0.5159655121145939 x(31,35) + 0.5735885940953495 x(31,36)
   + 0.4431771494766851 x(31,37) + 0.5530032679389562 x(31,38)
   + 0.6612049004134494 x(32,20) + 0.6171865557533431 x(32,21)
   + 0.5478276022940236 x(32,22) + 0.4432349051083353 x(32,23)
   + 0.648 x(32,24) + 0.6032732151563506 x(32,25) + 0.586 x(32,26)
   + 0.5486606874731851 x(32,27) + 0.524 x(32,28)
   + 0.5028007782071712 x(32,29) + 0.38 x(32,30)
   + 0.4431578947368421 x(32,31) + 0.565 x(32,33)
   + 0.579627392120467 x(32,34) + 0.4431578947368421 x(32,35)
   + 0.5084665847162158 x(32,36) + 0.04 x(32,37)
   + 0.4084432902241272 x(32,38) + 0.5166747616239262 x(33,20)
   + 0.5838613608129778 x(33,21) + 0.475148449842889 x(33,22)
   + 0.5860456933121538 x(33,23) + 0.4463157894736842 x(33,24)
   + 0.4515147042586462 x(33,25) + 0.2505263157894737 x(33,26)
   + 0.4737224855078675 x(33,27) + 0.3136842105263158 x(33,28)
   + 0.5316548517905816 x(33,29) + 0.503 x(33,30)
   + 0.5842525440801294 x(33,31) + 0.565 x(33,32)
   + 0.408421052631579 x(33,34) + 0.4463157894736842 x(33,35)
   + 0.5092245393673052 x(33,36) + 0.566 x(33,37)
   + 0.580546392929906 x(33,38) + 0.5740632069105933 x(34,20)
   + 0.6535034516530298 x(34,21) + 0.5586600138661282 x(34,22)
   + 0.6264906179072325 x(34,23) + 0.5092245393673052 x(34,24)
   + 0.554434452114805 x(34,25) + 0.4180227245525824 x(34,26)
   + 0.5583982323133689 x(34,27) + 0.4431193809613007 x(34,28)
   + 0.5844396920405149 x(34,29) + 0.525099960031968 x(34,30)
   + 0.6250199991111901 x(34,31) + 0.579627392120467 x(34,32)
   + 0.408421052631579 x(34,33) + 0.5092245393673052 x(34,35)
   + 0.4463157894736842 x(34,36) + 0.580546392929906 x(34,37)
   + 0.566 x(34,38) + 0.5851485889765299 x(35,20)
   + 0.5836355085488643 x(35,21) + 0.4737224855078675 x(35,22)
   + 0.5173882447266335 x(35,23) + 0.566 x(35,24)
   + 0.5324386650491464 x(35,25) + 0.504 x(35,26)
   + 0.475148449842889 x(35,27) + 0.3168421052631579 x(35,28)
   + 0.4507488148969582 x(35,29) + 0.2473684210526316 x(35,30)
   + 0.5159655121145939 x(35,31) + 0.4431578947368421 x(35,32)
   + 0.4463157894736842 x(35,33) + 0.5092245393673052 x(35,34)
   + 0.408421052631579 x(35,36) + 0.4463157894736842 x(35,37)
   + 0.5092245393673052 x(35,38) + 0.6257542912105991 x(36,20)
   + 0.6533396929026323 x(36,21) + 0.5583982323133689 x(36,22)
   + 0.5745422584934663 x(36,23) + 0.580546392929906 x(36,24)
   + 0.585 x(36,25) + 0.5259245806028354 x(36,26)
   + 0.5586600138661282 x(36,27) + 0.4447129175617728 x(36,28)
   + 0.5543016526159069 x(36,29) + 0.4171467402851793 x(36,30)
   + 0.5735885940953495 x(36,31) + 0.5084665847162158 x(36,32)
   + 0.5092245393673052 x(36,33) + 0.4463157894736842 x(36,34)
   + 0.408421052631579 x(36,35) + 0.5092245393673052 x(36,37)
   + 0.4463157894736842 x(36,38) + 0.6621545345783666 x(37,20)
   + 0.6177544488638522 x(37,21) + 0.5486606874731851 x(37,22)
   + 0.4431771494766851 x(37,23) + 0.649 x(37,24)
   + 0.6041886382735338 x(37,25) + 0.587 x(37,26)
   + 0.5494958193395387 x(37,27) + 0.525 x(37,28)
   + 0.5034069630150697 x(37,29) + 0.3831578947368421 x(37,30)
   + 0.4431771494766851 x(37,31) + 0.04 x(37,32) + 0.566 x(37,33)
   + 0.580546392929906 x(37,34) + 0.4463157894736842 x(37,35)
   + 0.5092245393673052 x(37,36) + 0.408421052631579 x(37,38)
   + 0.6922498930709813 x(38,20) + 0.6790627169652013 x(38,21)
   + 0.5969390768740425 x(38,22) + 0.5530032679389562 x(38,23)
   + 0.6589246994784391 x(38,24) + 0.6416153968603822 x(38,25)
   + 0.6000249984376953 x(38,26) + 0.5975702406740449 x(38,27)
   + 0.5437567389724739 x(38,28) + 0.5654629867976522 x(38,29)
   + 0.4839611151600241 x(38,30) + 0.5530032679389562 x(38,31)
   + 0.4084432902241272 x(38,32) + 0.580546392929906 x(38,33)
   + 0.566 x(38,34) + 0.5092245393673052 x(38,35)
   + 0.4463157894736842 x(38,36) + 0.408421052631579 x(38,37)
Subject To
 Balance_nodo_inicial: x(0,1) + x(0,2) + x(0,3) + x(0,4) + x(0,5) + x(0,6)
   + x(0,7) + x(0,8) + x(0,9) + x(0,10) + x(0,11) + x(0,12) + x(0,13)
   + x(0,14) + x(0,15) + x(0,16) + x(0,17) + x(0,18) + x(0,19) + x(0,20)
   + x(0,21) + x(0,22) + x(0,23) + x(0,24) + x(0,25) + x(0,26) + x(0,27)
   + x(0,28) + x(0,29) + x(0,30) + x(0,31) + x(0,32) + x(0,33) + x(0,34)
   + x(0,35) + x(0,36) + x(0,37) + x(0,38) = 1
 Balance_nodo_1: - x(0,1) + x(1,6) + x(1,20) + x(1,39) - x(6,1) - x(20,1)
   = 0
 Balance_nodo_2: - x(0,2) + x(2,3) + x(2,21) + x(2,39) - x(3,2) - x(21,2)
   = 0
 Balance_nodo_3: - x(0,3) - x(2,3) + x(3,2) + x(3,8) + x(3,10) + x(3,22)
   + x(3,39) - x(8,3) - x(10,3) - x(22,3) = 0
 Balance_nodo_4: - x(0,4) + x(4,12) + x(4,23) + x(4,39) - x(12,4) - x(23,4)
   = 0
 Balance_nodo_5: - x(0,5) + x(5,7) + x(5,24) + x(5,39) - x(7,5) - x(24,5)
   = 0
 Balance_nodo_6: - x(0,6) - x(1,6) + x(6,1) + x(6,7) + x(6,8) + x(6,25)
   + x(6,39) - x(7,6) - x(8,6) - x(25,6) = 0
 Balance_nodo_7: - x(0,7) - x(5,7) - x(6,7) + x(7,5) + x(7,6) + x(7,14)
   + x(7,26) + x(7,39) - x(14,7) - x(26,7) = 0
 Balance_nodo_8: - x(0,8) - x(3,8) - x(6,8) + x(8,3) + x(8,6) + x(8,9)
   + x(8,27) + x(8,39) - x(9,8) - x(27,8) = 0
 Balance_nodo_9: - x(0,9) - x(8,9) + x(9,8) + x(9,14) + x(9,16) + x(9,28)
   + x(9,39) - x(14,9) - x(16,9) - x(28,9) = 0
 Balance_nodo_10: - x(0,10) - x(3,10) + x(10,3) + x(10,11) + x(10,12)
   + x(10,29) + x(10,39) - x(11,10) - x(12,10) - x(29,10) = 0
 Balance_nodo_11: - x(0,11) - x(10,11) + x(11,10) + x(11,13) + x(11,16)
   + x(11,30) + x(11,39) - x(13,11) - x(16,11) - x(30,11) = 0
 Balance_nodo_12: - x(0,12) - x(4,12) - x(10,12) + x(12,4) + x(12,10)
   + x(12,13) + x(12,31) + x(12,39) - x(13,12) - x(31,12) = 0
 Balance_nodo_13: - x(0,13) - x(11,13) - x(12,13) + x(13,11) + x(13,12)
   + x(13,18) + x(13,32) + x(13,39) - x(18,13) - x(32,13) = 0
 Balance_nodo_14: - x(0,14) - x(7,14) - x(9,14) + x(14,7) + x(14,9)
   + x(14,15) + x(14,33) + x(14,39) - x(15,14) - x(33,14) = 0
 Balance_nodo_15: - x(0,15) - x(14,15) + x(15,14) + x(15,34) + x(15,39)
   - x(34,15) = 0
 Balance_nodo_16: - x(0,16) - x(9,16) - x(11,16) + x(16,9) + x(16,11)
   + x(16,17) + x(16,35) + x(16,39) - x(17,16) - x(35,16) = 0
 Balance_nodo_17: - x(0,17) - x(16,17) + x(17,16) + x(17,36) + x(17,39)
   - x(36,17) = 0
 Balance_nodo_18: - x(0,18) - x(13,18) + x(18,13) + x(18,19) + x(18,37)
   + x(18,39) - x(19,18) - x(37,18) = 0
 Balance_nodo_19: - x(0,19) - x(18,19) + x(19,18) + x(19,38) + x(19,39)
   - x(38,19) = 0
 Balance_nodo_20: - x(0,20) - x(1,20) + x(20,1) + x(20,21) + x(20,22)
   + x(20,23) + x(20,24) + x(20,25) + x(20,26) + x(20,27) + x(20,28)
   + x(20,29) + x(20,30) + x(20,31) + x(20,32) + x(20,33) + x(20,34)
   + x(20,35) + x(20,36) + x(20,37) + x(20,38) + x(20,39) - x(21,20)
   - x(22,20) - x(23,20) - x(24,20) - x(25,20) - x(26,20) - x(27,20)
   - x(28,20) - x(29,20) - x(30,20) - x(31,20) - x(32,20) - x(33,20)
   - x(34,20) - x(35,20) - x(36,20) - x(37,20) - x(38,20) = 0
 Balance_nodo_21: - x(0,21) - x(2,21) - x(20,21) + x(21,2) + x(21,20)
   + x(21,22) + x(21,23) + x(21,24) + x(21,25) + x(21,26) + x(21,27)
   + x(21,28) + x(21,29) + x(21,30) + x(21,31) + x(21,32) + x(21,33)
   + x(21,34) + x(21,35) + x(21,36) + x(21,37) + x(21,38) + x(21,39)
   - x(22,21) - x(23,21) - x(24,21) - x(25,21) - x(26,21) - x(27,21)
   - x(28,21) - x(29,21) - x(30,21) - x(31,21) - x(32,21) - x(33,21)
   - x(34,21) - x(35,21) - x(36,21) - x(37,21) - x(38,21) = 0
 Balance_nodo_22: - x(0,22) - x(3,22) - x(20,22) - x(21,22) + x(22,3)
   + x(22,20) + x(22,21) + x(22,23) + x(22,24) + x(22,25) + x(22,26)
   + x(22,27) + x(22,28) + x(22,29) + x(22,30) + x(22,31) + x(22,32)
   + x(22,33) + x(22,34) + x(22,35) + x(22,36) + x(22,37) + x(22,38)
   + x(22,39) - x(23,22) - x(24,22) - x(25,22) - x(26,22) - x(27,22)
   - x(28,22) - x(29,22) - x(30,22) - x(31,22) - x(32,22) - x(33,22)
   - x(34,22) - x(35,22) - x(36,22) - x(37,22) - x(38,22) = 0
 Balance_nodo_23: - x(0,23) - x(4,23) - x(20,23) - x(21,23) - x(22,23)
   + x(23,4) + x(23,20) + x(23,21) + x(23,22) + x(23,24) + x(23,25)
   + x(23,26) + x(23,27) + x(23,28) + x(23,29) + x(23,30) + x(23,31)
   + x(23,32) + x(23,33) + x(23,34) + x(23,35) + x(23,36) + x(23,37)
   + x(23,38) + x(23,39) - x(24,23) - x(25,23) - x(26,23) - x(27,23)
   - x(28,23) - x(29,23) - x(30,23) - x(31,23) - x(32,23) - x(33,23)
   - x(34,23) - x(35,23) - x(36,23) - x(37,23) - x(38,23) = 0
 Balance_nodo_24: - x(0,24) - x(5,24) - x(20,24) - x(21,24) - x(22,24)
   - x(23,24) + x(24,5) + x(24,20) + x(24,21) + x(24,22) + x(24,23)
   + x(24,25) + x(24,26) + x(24,27) + x(24,28) + x(24,29) + x(24,30)
   + x(24,31) + x(24,32) + x(24,33) + x(24,34) + x(24,35) + x(24,36)
   + x(24,37) + x(24,38) + x(24,39) - x(25,24) - x(26,24) - x(27,24)
   - x(28,24) - x(29,24) - x(30,24) - x(31,24) - x(32,24) - x(33,24)
   - x(34,24) - x(35,24) - x(36,24) - x(37,24) - x(38,24) = 0
 Balance_nodo_25: - x(0,25) - x(6,25) - x(20,25) - x(21,25) - x(22,25)
   - x(23,25) - x(24,25) + x(25,6) + x(25,20) + x(25,21) + x(25,22)
   + x(25,23) + x(25,24) + x(25,26) + x(25,27) + x(25,28) + x(25,29)
   + x(25,30) + x(25,31) + x(25,32) + x(25,33) + x(25,34) + x(25,35)
   + x(25,36) + x(25,37) + x(25,38) + x(25,39) - x(26,25) - x(27,25)
   - x(28,25) - x(29,25) - x(30,25) - x(31,25) - x(32,25) - x(33,25)
   - x(34,25) - x(35,25) - x(36,25) - x(37,25) - x(38,25) = 0
 Balance_nodo_26: - x(0,26) - x(7,26) - x(20,26) - x(21,26) - x(22,26)
   - x(23,26) - x(24,26) - x(25,26) + x(26,7) + x(26,20) + x(26,21)
   + x(26,22) + x(26,23) + x(26,24) + x(26,25) + x(26,27) + x(26,28)
   + x(26,29) + x(26,30) + x(26,31) + x(26,32) + x(26,33) + x(26,34)
   + x(26,35) + x(26,36) + x(26,37) + x(26,38) + x(26,39) - x(27,26)
   - x(28,26) - x(29,26) - x(30,26) - x(31,26) - x(32,26) - x(33,26)
   - x(34,26) - x(35,26) - x(36,26) - x(37,26) - x(38,26) = 0
 Balance_nodo_27: - x(0,27) - x(8,27) - x(20,27) - x(21,27) - x(22,27)
   - x(23,27) - x(24,27) - x(25,27) - x(26,27) + x(27,8) + x(27,20)
   + x(27,21) + x(27,22) + x(27,23) + x(27,24) + x(27,25) + x(27,26)
   + x(27,28) + x(27,29) + x(27,30) + x(27,31) + x(27,32) + x(27,33)
   + x(27,34) + x(27,35) + x(27,36) + x(27,37) + x(27,38) + x(27,39)
   - x(28,27) - x(29,27) - x(30,27) - x(31,27) - x(32,27) - x(33,27)
   - x(34,27) - x(35,27) - x(36,27) - x(37,27) - x(38,27) = 0
 Balance_nodo_28: - x(0,28) - x(9,28) - x(20,28) - x(21,28) - x(22,28)
   - x(23,28) - x(24,28) - x(25,28) - x(26,28) - x(27,28) + x(28,9)
   + x(28,20) + x(28,21) + x(28,22) + x(28,23) + x(28,24) + x(28,25)
   + x(28,26) + x(28,27) + x(28,29) + x(28,30) + x(28,31) + x(28,32)
   + x(28,33) + x(28,34) + x(28,35) + x(28,36) + x(28,37) + x(28,38)
   + x(28,39) - x(29,28) - x(30,28) - x(31,28) - x(32,28) - x(33,28)
   - x(34,28) - x(35,28) - x(36,28) - x(37,28) - x(38,28) = 0
 Balance_nodo_29: - x(0,29) - x(10,29) - x(20,29) - x(21,29) - x(22,29)
   - x(23,29) - x(24,29) - x(25,29) - x(26,29) - x(27,29) - x(28,29)
   + x(29,10) + x(29,20) + x(29,21) + x(29,22) + x(29,23) + x(29,24)
   + x(29,25) + x(29,26) + x(29,27) + x(29,28) + x(29,30) + x(29,31)
   + x(29,32) + x(29,33) + x(29,34) + x(29,35) + x(29,36) + x(29,37)
   + x(29,38) + x(29,39) - x(30,29) - x(31,29) - x(32,29) - x(33,29)
   - x(34,29) - x(35,29) - x(36,29) - x(37,29) - x(38,29) = 0
 Balance_nodo_30: - x(0,30) - x(11,30) - x(20,30) - x(21,30) - x(22,30)
   - x(23,30) - x(24,30) - x(25,30) - x(26,30) - x(27,30) - x(28,30)
   - x(29,30) + x(30,11) + x(30,20) + x(30,21) + x(30,22) + x(30,23)
   + x(30,24) + x(30,25) + x(30,26) + x(30,27) + x(30,28) + x(30,29)
   + x(30,31) + x(30,32) + x(30,33) + x(30,34) + x(30,35) + x(30,36)
   + x(30,37) + x(30,38) + x(30,39) - x(31,30) - x(32,30) - x(33,30)
   - x(34,30) - x(35,30) - x(36,30) - x(37,30) - x(38,30) = 0
 Balance_nodo_31: - x(0,31) - x(12,31) - x(20,31) - x(21,31) - x(22,31)
   - x(23,31) - x(24,31) - x(25,31) - x(26,31) - x(27,31) - x(28,31)
   - x(29,31) - x(30,31) + x(31,12) + x(31,20) + x(31,21) + x(31,22)
   + x(31,23) + x(31,24) + x(31,25) + x(31,26) + x(31,27) + x(31,28)
   + x(31,29) + x(31,30) + x(31,32) + x(31,33) + x(31,34) + x(31,35)
   + x(31,36) + x(31,37) + x(31,38) + x(31,39) - x(32,31) - x(33,31)
   - x(34,31) - x(35,31) - x(36,31) - x(37,31) - x(38,31) = 0
 Balance_nodo_32: - x(0,32) - x(13,32) - x(20,32) - x(21,32) - x(22,32)
   - x(23,32) - x(24,32) - x(25,32) - x(26,32) - x(27,32) - x(28,32)
   - x(29,32) - x(30,32) - x(31,32) + x(32,13) + x(32,20) + x(32,21)
   + x(32,22) + x(32,23) + x(32,24) + x(32,25) + x(32,26) + x(32,27)
   + x(32,28) + x(32,29) + x(32,30) + x(32,31) + x(32,33) + x(32,34)
   + x(32,35) + x(32,36) + x(32,37) + x(32,38) + x(32,39) - x(33,32)
   - x(34,32) - x(35,32) - x(36,32) - x(37,32) - x(38,32) = 0
 Balance_nodo_33: - x(0,33) - x(14,33) - x(20,33) - x(21,33) - x(22,33)
   - x(23,33) - x(24,33) - x(25,33) - x(26,33) - x(27,33) - x(28,33)
   - x(29,33) - x(30,33) - x(31,33) - x(32,33) + x(33,14) + x(33,20)
   + x(33,21) + x(33,22) + x(33,23) + x(33,24) + x(33,25) + x(33,26)
   + x(33,27) + x(33,28) + x(33,29) + x(33,30) + x(33,31) + x(33,32)
   + x(33,34) + x(33,35) + x(33,36) + x(33,37) + x(33,38) + x(33,39)
   - x(34,33) - x(35,33) - x(36,33) - x(37,33) - x(38,33) = 0
 Balance_nodo_34: - x(0,34) - x(15,34) - x(20,34) - x(21,34) - x(22,34)
   - x(23,34) - x(24,34) - x(25,34) - x(26,34) - x(27,34) - x(28,34)
   - x(29,34) - x(30,34) - x(31,34) - x(32,34) - x(33,34) + x(34,15)
   + x(34,20) + x(34,21) + x(34,22) + x(34,23) + x(34,24) + x(34,25)
   + x(34,26) + x(34,27) + x(34,28) + x(34,29) + x(34,30) + x(34,31)
   + x(34,32) + x(34,33) + x(34,35) + x(34,36) + x(34,37) + x(34,38)
   + x(34,39) - x(35,34) - x(36,34) - x(37,34) - x(38,34) = 0
 Balance_nodo_35: - x(0,35) - x(16,35) - x(20,35) - x(21,35) - x(22,35)
   - x(23,35) - x(24,35) - x(25,35) - x(26,35) - x(27,35) - x(28,35)
   - x(29,35) - x(30,35) - x(31,35) - x(32,35) - x(33,35) - x(34,35)
   + x(35,16) + x(35,20) + x(35,21) + x(35,22) + x(35,23) + x(35,24)
   + x(35,25) + x(35,26) + x(35,27) + x(35,28) + x(35,29) + x(35,30)
   + x(35,31) + x(35,32) + x(35,33) + x(35,34) + x(35,36) + x(35,37)
   + x(35,38) + x(35,39) - x(36,35) - x(37,35) - x(38,35) = 0
 Balance_nodo_36: - x(0,36) - x(17,36) - x(20,36) - x(21,36) - x(22,36)
   - x(23,36) - x(24,36) - x(25,36) - x(26,36) - x(27,36) - x(28,36)
   - x(29,36) - x(30,36) - x(31,36) - x(32,36) - x(33,36) - x(34,36)
   - x(35,36) + x(36,17) + x(36,20) + x(36,21) + x(36,22) + x(36,23)
   + x(36,24) + x(36,25) + x(36,26) + x(36,27) + x(36,28) + x(36,29)
   + x(36,30) + x(36,31) + x(36,32) + x(36,33) + x(36,34) + x(36,35)
   + x(36,37) + x(36,38) + x(36,39) - x(37,36) - x(38,36) = 0
 Balance_nodo_37: - x(0,37) - x(18,37) - x(20,37) - x(21,37) - x(22,37)
   - x(23,37) - x(24,37) - x(25,37) - x(26,37) - x(27,37) - x(28,37)
   - x(29,37) - x(30,37) - x(31,37) - x(32,37) - x(33,37) - x(34,37)
   - x(35,37) - x(36,37) + x(37,18) + x(37,20) + x(37,21) + x(37,22)
   + x(37,23) + x(37,24) + x(37,25) + x(37,26) + x(37,27) + x(37,28)
   + x(37,29) + x(37,30) + x(37,31) + x(37,32) + x(37,33) + x(37,34)
   + x(37,35) + x(37,36) + x(37,38) + x(37,39) - x(38,37) = 0
 Balance_nodo_38: - x(0,38) - x(19,38) - x(20,38) - x(21,38) - x(22,38)
   - x(23,38) - x(24,38) - x(25,38) - x(26,38) - x(27,38) - x(28,38)
   - x(29,38) - x(30,38) - x(31,38) - x(32,38) - x(33,38) - x(34,38)
   - x(35,38) - x(36,38) - x(37,38) + x(38,19) + x(38,20) + x(38,21)
   + x(38,22) + x(38,23) + x(38,24) + x(38,25) + x(38,26) + x(38,27)
   + x(38,28) + x(38,29) + x(38,30) + x(38,31) + x(38,32) + x(38,33)
   + x(38,34) + x(38,35) + x(38,36) + x(38,37) + x(38,39) = 0
 Balance_nodo_final: - x(1,39) - x(2,39) - x(3,39) - x(4,39) - x(5,39)
   - x(6,39) - x(7,39) - x(8,39) - x(9,39) - x(10,39) - x(11,39) - x(12,39)
   - x(13,39) - x(14,39) - x(15,39) - x(16,39) - x(17,39) - x(18,39)
   - x(19,39) - x(20,39) - x(21,39) - x(22,39) - x(23,39) - x(24,39)
   - x(25,39) - x(26,39) - x(27,39) - x(28,39) - x(29,39) - x(30,39)
   - x(31,39) - x(32,39) - x(33,39) - x(34,39) - x(35,39) - x(36,39)
   - x(37,39) - x(38,39) = -1
 Corte_Unico_entre_1_y_6: x(1,6) + x(6,1) = 1
 Corte_Unico_entre_2_y_3: x(2,3) + x(3,2) = 1
 Corte_Unico_entre_3_y_8: x(3,8) + x(8,3) = 1
 Corte_Unico_entre_3_y_10: x(3,10) + x(10,3) = 1
 Corte_Unico_entre_4_y_12: x(4,12) + x(12,4) = 1
 Corte_Unico_entre_5_y_7: x(5,7) + x(7,5) = 1
 Corte_Unico_entre_6_y_7: x(6,7) + x(7,6) = 1
 Corte_Unico_entre_6_y_8: x(6,8) + x(8,6) = 1
 Corte_Unico_entre_7_y_14: x(7,14) + x(14,7) = 1
 Corte_Unico_entre_8_y_9: x(8,9) + x(9,8) = 1
 Corte_Unico_entre_9_y_14: x(9,14) + x(14,9) = 1
 Corte_Unico_entre_9_y_16: x(9,16) + x(16,9) = 1
 Corte_Unico_entre_10_y_11: x(10,11) + x(11,10) = 1
 Corte_Unico_entre_10_y_12: x(10,12) + x(12,10) = 1
 Corte_Unico_entre_11_y_13: x(11,13) + x(13,11) = 1
 Corte_Unico_entre_11_y_16: x(11,16) + x(16,11) = 1
 Corte_Unico_entre_12_y_13: x(12,13) + x(13,12) = 1
 Corte_Unico_entre_13_y_18: x(13,18) + x(18,13) = 1
 Corte_Unico_entre_14_y_15: x(14,15) + x(15,14) = 1
 Corte_Unico_entre_16_y_17: x(16,17) + x(17,16) = 1
 Corte_Unico_entre_18_y_19: x(18,19) + x(19,18) = 1
Bounds
Binaries
 x(0,1) x(0,2) x(0,3) x(0,4) x(0,5) x(0,6) x(0,7) x(0,8) x(0,9) x(0,10)
 x(0,11) x(0,12) x(0,13) x(0,14) x(0,15) x(0,16) x(0,17) x(0,18) x(0,19)
 x(0,20) x(0,21) x(0,22) x(0,23) x(0,24) x(0,25) x(0,26) x(0,27) x(0,28)
 x(0,29) x(0,30) x(0,31) x(0,32) x(0,33) x(0,34) x(0,35) x(0,36) x(0,37)
 x(0,38) x(1,6) x(1,20) x(1,39) x(2,3) x(2,21) x(2,39) x(3,2) x(3,8)
 x(3,10) x(3,22) x(3,39) x(4,12) x(4,23) x(4,39) x(5,7) x(5,24) x(5,39)
 x(6,1) x(6,7) x(6,8) x(6,25) x(6,39) x(7,5) x(7,6) x(7,14) x(7,26) x(7,39)
 x(8,3) x(8,6) x(8,9) x(8,27) x(8,39) x(9,8) x(9,14) x(9,16) x(9,28)
 x(9,39) x(10,3) x(10,11) x(10,12) x(10,29) x(10,39) x(11,10) x(11,13)
 x(11,16) x(11,30) x(11,39) x(12,4) x(12,10) x(12,13) x(12,31) x(12,39)
 x(13,11) x(13,12) x(13,18) x(13,32) x(13,39) x(14,7) x(14,9) x(14,15)
 x(14,33) x(14,39) x(15,14) x(15,34) x(15,39) x(16,9) x(16,11) x(16,17)
 x(16,35) x(16,39) x(17,16) x(17,36) x(17,39) x(18,13) x(18,19) x(18,37)
 x(18,39) x(19,18) x(19,38) x(19,39) x(20,1) x(20,21) x(20,22) x(20,23)
 x(20,24) x(20,25) x(20,26) x(20,27) x(20,28) x(20,29) x(20,30) x(20,31)
 x(20,32) x(20,33) x(20,34) x(20,35) x(20,36) x(20,37) x(20,38) x(20,39)
 x(21,2) x(21,20) x(21,22) x(21,23) x(21,24) x(21,25) x(21,26) x(21,27)
 x(21,28) x(21,29) x(21,30) x(21,31) x(21,32) x(21,33) x(21,34) x(21,35)
 x(21,36) x(21,37) x(21,38) x(21,39) x(22,3) x(22,20) x(22,21) x(22,23)
 x(22,24) x(22,25) x(22,26) x(22,27) x(22,28) x(22,29) x(22,30) x(22,31)
 x(22,32) x(22,33) x(22,34) x(22,35) x(22,36) x(22,37) x(22,38) x(22,39)
 x(23,4) x(23,20) x(23,21) x(23,22) x(23,24) x(23,25) x(23,26) x(23,27)
 x(23,28) x(23,29) x(23,30) x(23,31) x(23,32) x(23,33) x(23,34) x(23,35)
 x(23,36) x(23,37) x(23,38) x(23,39) x(24,5) x(24,20) x(24,21) x(24,22)
 x(24,23) x(24,25) x(24,26) x(24,27) x(24,28) x(24,29) x(24,30) x(24,31)
 x(24,32) x(24,33) x(24,34) x(24,35) x(24,36) x(24,37) x(24,38) x(24,39)
 x(25,6) x(25,20) x(25,21) x(25,22) x(25,23) x(25,24) x(25,26) x(25,27)
 x(25,28) x(25,29) x(25,30) x(25,31) x(25,32) x(25,33) x(25,34) x(25,35)
 x(25,36) x(25,37) x(25,38) x(25,39) x(26,7) x(26,20) x(26,21) x(26,22)
 x(26,23) x(26,24) x(26,25) x(26,27) x(26,28) x(26,29) x(26,30) x(26,31)
 x(26,32) x(26,33) x(26,34) x(26,35) x(26,36) x(26,37) x(26,38) x(26,39)
 x(27,8) x(27,20) x(27,21) x(27,22) x(27,23) x(27,24) x(27,25) x(27,26)
 x(27,28) x(27,29) x(27,30) x(27,31) x(27,32) x(27,33) x(27,34) x(27,35)
 x(27,36) x(27,37) x(27,38) x(27,39) x(28,9) x(28,20) x(28,21) x(28,22)
 x(28,23) x(28,24) x(28,25) x(28,26) x(28,27) x(28,29) x(28,30) x(28,31)
 x(28,32) x(28,33) x(28,34) x(28,35) x(28,36) x(28,37) x(28,38) x(28,39)
 x(29,10) x(29,20) x(29,21) x(29,22) x(29,23) x(29,24) x(29,25) x(29,26)
 x(29,27) x(29,28) x(29,30) x(29,31) x(29,32) x(29,33) x(29,34) x(29,35)
 x(29,36) x(29,37) x(29,38) x(29,39) x(30,11) x(30,20) x(30,21) x(30,22)
 x(30,23) x(30,24) x(30,25) x(30,26) x(30,27) x(30,28) x(30,29) x(30,31)
 x(30,32) x(30,33) x(30,34) x(30,35) x(30,36) x(30,37) x(30,38) x(30,39)
 x(31,12) x(31,20) x(31,21) x(31,22) x(31,23) x(31,24) x(31,25) x(31,26)
 x(31,27) x(31,28) x(31,29) x(31,30) x(31,32) x(31,33) x(31,34) x(31,35)
 x(31,36) x(31,37) x(31,38) x(31,39) x(32,13) x(32,20) x(32,21) x(32,22)
 x(32,23) x(32,24) x(32,25) x(32,26) x(32,27) x(32,28) x(32,29) x(32,30)
 x(32,31) x(32,33) x(32,34) x(32,35) x(32,36) x(32,37) x(32,38) x(32,39)
 x(33,14) x(33,20) x(33,21) x(33,22) x(33,23) x(33,24) x(33,25) x(33,26)
 x(33,27) x(33,28) x(33,29) x(33,30) x(33,31) x(33,32) x(33,34) x(33,35)
 x(33,36) x(33,37) x(33,38) x(33,39) x(34,15) x(34,20) x(34,21) x(34,22)
 x(34,23) x(34,24) x(34,25) x(34,26) x(34,27) x(34,28) x(34,29) x(34,30)
 x(34,31) x(34,32) x(34,33) x(34,35) x(34,36) x(34,37) x(34,38) x(34,39)
 x(35,16) x(35,20) x(35,21) x(35,22) x(35,23) x(35,24) x(35,25) x(35,26)
 x(35,27) x(35,28) x(35,29) x(35,30) x(35,31) x(35,32) x(35,33) x(35,34)
 x(35,36) x(35,37) x(35,38) x(35,39) x(36,17) x(36,20) x(36,21) x(36,22)
 x(36,23) x(36,24) x(36,25) x(36,26) x(36,27) x(36,28) x(36,29) x(36,30)
 x(36,31) x(36,32) x(36,33) x(36,34) x(36,35) x(36,37) x(36,38) x(36,39)
 x(37,18) x(37,20) x(37,21) x(37,22) x(37,23) x(37,24) x(37,25) x(37,26)
 x(37,27) x(37,28) x(37,29) x(37,30) x(37,31) x(37,32) x(37,33) x(37,34)
 x(37,35) x(37,36) x(37,38) x(37,39) x(38,19) x(38,20) x(38,21) x(38,22)
 x(38,23) x(38,24) x(38,25) x(38,26) x(38,27) x(38,28) x(38,29) x(38,30)
 x(38,31) x(38,32) x(38,33) x(38,34) x(38,35) x(38,36) x(38,37) x(38,39)
End
